NAME: GRASP_50_14
TYPE: TSP
COMMENT: line_50_14
DIMENSION: 50
EDGE_WEIGHT_TYPE: EUC_2D
NODE_COORD_SECTION
1 4492 1351
2 3528 4268
3 3142 2140
4 1173 4197
5 3127 4101
6 858 1046
7 920 3648
8 934 2887
9 2874 1967
10 2843 1197
11 2574 3023
12 4927 3420
13 741 2518
14 1488 2994
15 62 1695
16 3232 927
17 2826 3039
18 4278 3185
19 1528 226
20 734 1674
21 2190 4024
22 1365 2620
23 817 3490
24 2883 1666
25 1655 568
26 1018 4861
27 3573 4572
28 2856 3172
29 1787 3715
30 3621 2361
31 1651 4702
32 4057 2366
33 2181 3934
34 1372 2932
35 1127 3969
36 3285 2303
37 3936 4188
38 2830 2195
39 4208 2061
40 3013 901
41 4698 388
42 1500 3047
43 1056 3760
44 4113 1930
45 3910 1634
46 2456 2213
47 760 1247
48 62 3824
49 2284 4704
50 1576 4598
